TC_ILP/motion_vectors_dfg__7_2.0.lp
Minimize
M1 + M2
Subject To
x0,2 + x0,3 + x0,4 + x0,5 + x0,6 + x0,7 + x0,8 + x0,9 + x0,10 + x0,11 + x0,12 + x0,13 = 1
x1,3 + x1,4 + x1,5 + x1,6 + x1,7 + x1,8 + x1,9 + x1,10 + x1,11 + x1,12 + x1,13 = 1
x2,2 + x2,3 + x2,4 + x2,5 + x2,6 + x2,7 + x2,8 + x2,9 + x2,10 + x2,11 + x2,12 = 1
x3,1 + x3,2 + x3,3 + x3,4 + x3,5 + x3,6 + x3,7 + x3,8 + x3,9 + x3,10 + x3,11 = 1
x4,4 + x4,5 + x4,6 + x4,7 + x4,8 + x4,9 + x4,10 + x4,11 + x4,12 + x4,13 = 1
x5,5 + x5,6 + x5,7 + x5,8 + x5,9 + x5,10 + x5,11 + x5,12 + x5,13 = 1
x6,6 + x6,7 + x6,8 + x6,9 + x6,10 + x6,11 + x6,12 + x6,13 = 1
x7,5 + x7,6 + x7,7 + x7,8 + x7,9 + x7,10 + x7,11 + x7,12 = 1
x8,4 + x8,5 + x8,6 + x8,7 + x8,8 + x8,9 + x8,10 + x8,11 = 1
x9,3 + x9,4 + x9,5 + x9,6 + x9,7 + x9,8 + x9,9 + x9,10 = 1
x10,2 + x10,3 + x10,4 + x10,5 + x10,6 + x10,7 + x10,8 + x10,9 = 1
x11,3 + x11,4 + x11,5 + x11,6 + x11,7 + x11,8 + x11,9 + x11,10 + x11,11 + x11,12 + x11,13 = 1
x12,4 + x12,5 + x12,6 + x12,7 + x12,8 + x12,9 + x12,10 + x12,11 + x12,12 + x12,13 = 1
x13,5 + x13,6 + x13,7 + x13,8 + x13,9 + x13,10 + x13,11 + x13,12 + x13,13 = 1
x14,4 + x14,5 + x14,6 + x14,7 + x14,8 + x14,9 + x14,10 + x14,11 + x14,12 = 1
x15,3 + x15,4 + x15,5 + x15,6 + x15,7 + x15,8 + x15,9 + x15,10 + x15,11 = 1
x16,2 + x16,3 + x16,4 + x16,5 + x16,6 + x16,7 + x16,8 + x16,9 + x16,10 = 1
x17,1 + x17,2 + x17,3 + x17,4 + x17,5 + x17,6 + x17,7 + x17,8 = 1
x18,4 + x18,5 + x18,6 + x18,7 + x18,8 + x18,9 + x18,10 + x18,11 + x18,12 + x18,13 = 1
x19,5 + x19,6 + x19,7 + x19,8 + x19,9 + x19,10 + x19,11 + x19,12 + x19,13 = 1
x20,6 + x20,7 + x20,8 + x20,9 + x20,10 + x20,11 + x20,12 + x20,13 = 1
x21,5 + x21,6 + x21,7 + x21,8 + x21,9 + x21,10 + x21,11 + x21,12 = 1
x22,4 + x22,5 + x22,6 + x22,7 + x22,8 + x22,9 + x22,10 + x22,11 = 1
x23,3 + x23,4 + x23,5 + x23,6 + x23,7 + x23,8 + x23,9 + x23,10 = 1
x24,2 + x24,3 + x24,4 + x24,5 + x24,6 + x24,7 + x24,8 + x24,9 = 1
x25,3 + x25,4 + x25,5 + x25,6 + x25,7 + x25,8 + x25,9 + x25,10 + x25,11 + x25,12 + x25,13 = 1
x26,4 + x26,5 + x26,6 + x26,7 + x26,8 + x26,9 + x26,10 + x26,11 + x26,12 + x26,13 = 1
x27,5 + x27,6 + x27,7 + x27,8 + x27,9 + x27,10 + x27,11 + x27,12 + x27,13 = 1
x28,4 + x28,5 + x28,6 + x28,7 + x28,8 + x28,9 + x28,10 + x28,11 + x28,12 = 1
x29,3 + x29,4 + x29,5 + x29,6 + x29,7 + x29,8 + x29,9 + x29,10 + x29,11 = 1
x30,2 + x30,3 + x30,4 + x30,5 + x30,6 + x30,7 + x30,8 + x30,9 + x30,10 = 1
x31,1 + x31,2 + x31,3 + x31,4 + x31,5 + x31,6 + x31,7 + x31,8 = 1
x3,1 + x17,1 + x31,1 - M2 <= 0
x2,2 + x3,2 + x10,2 + x16,2 + x17,2 + x24,2 + x30,2 + x31,2 - M2 <= 0
x2,3 + x3,3 + x9,3 + x10,3 + x15,3 + x16,3 + x17,3 + x23,3 + x24,3 + x29,3 + x30,3 + x31,3 - M2 <= 0
x0,3 + x0,2 + x1,3 + x1,2 + x11,3 + x11,2 + x25,3 + x25,2 - M1 <= 0
x2,4 + x3,4 + x8,4 + x9,4 + x10,4 + x14,4 + x15,4 + x16,4 + x17,4 + x22,4 + x23,4 + x24,4 + x28,4 + x29,4 + x30,4 + x31,4 - M2 <= 0
x0,4 + x0,3 + x1,4 + x1,3 + x4,4 + x4,3 + x11,4 + x11,3 + x12,4 + x12,3 + x18,4 + x18,3 + x25,4 + x25,3 + x26,4 + x26,3 - M1 <= 0
x2,5 + x3,5 + x7,5 + x8,5 + x9,5 + x10,5 + x14,5 + x15,5 + x16,5 + x17,5 + x21,5 + x22,5 + x23,5 + x24,5 + x28,5 + x29,5 + x30,5 + x31,5 - M2 <= 0
x0,5 + x0,4 + x1,5 + x1,4 + x4,5 + x4,4 + x5,5 + x5,4 + x11,5 + x11,4 + x12,5 + x12,4 + x13,5 + x13,4 + x18,5 + x18,4 + x19,5 + x19,4 + x25,5 + x25,4 + x26,5 + x26,4 + x27,5 + x27,4 - M1 <= 0
x2,6 + x3,6 + x7,6 + x8,6 + x9,6 + x10,6 + x14,6 + x15,6 + x16,6 + x17,6 + x21,6 + x22,6 + x23,6 + x24,6 + x28,6 + x29,6 + x30,6 + x31,6 - M2 <= 0
x0,6 + x0,5 + x1,6 + x1,5 + x4,6 + x4,5 + x5,6 + x5,5 + x6,6 + x6,5 + x11,6 + x11,5 + x12,6 + x12,5 + x13,6 + x13,5 + x18,6 + x18,5 + x19,6 + x19,5 + x20,6 + x20,5 + x25,6 + x25,5 + x26,6 + x26,5 + x27,6 + x27,5 - M1 <= 0
x2,7 + x3,7 + x7,7 + x8,7 + x9,7 + x10,7 + x14,7 + x15,7 + x16,7 + x17,7 + x21,7 + x22,7 + x23,7 + x24,7 + x28,7 + x29,7 + x30,7 + x31,7 - M2 <= 0
x0,7 + x0,6 + x1,7 + x1,6 + x4,7 + x4,6 + x5,7 + x5,6 + x6,7 + x6,6 + x11,7 + x11,6 + x12,7 + x12,6 + x13,7 + x13,6 + x18,7 + x18,6 + x19,7 + x19,6 + x20,7 + x20,6 + x25,7 + x25,6 + x26,7 + x26,6 + x27,7 + x27,6 - M1 <= 0
x2,8 + x3,8 + x7,8 + x8,8 + x9,8 + x10,8 + x14,8 + x15,8 + x16,8 + x17,8 + x21,8 + x22,8 + x23,8 + x24,8 + x28,8 + x29,8 + x30,8 + x31,8 - M2 <= 0
x0,8 + x0,7 + x1,8 + x1,7 + x4,8 + x4,7 + x5,8 + x5,7 + x6,8 + x6,7 + x11,8 + x11,7 + x12,8 + x12,7 + x13,8 + x13,7 + x18,8 + x18,7 + x19,8 + x19,7 + x20,8 + x20,7 + x25,8 + x25,7 + x26,8 + x26,7 + x27,8 + x27,7 - M1 <= 0
x2,9 + x3,9 + x7,9 + x8,9 + x9,9 + x10,9 + x14,9 + x15,9 + x16,9 + x21,9 + x22,9 + x23,9 + x24,9 + x28,9 + x29,9 + x30,9 - M2 <= 0
x0,9 + x0,8 + x1,9 + x1,8 + x4,9 + x4,8 + x5,9 + x5,8 + x6,9 + x6,8 + x11,9 + x11,8 + x12,9 + x12,8 + x13,9 + x13,8 + x18,9 + x18,8 + x19,9 + x19,8 + x20,9 + x20,8 + x25,9 + x25,8 + x26,9 + x26,8 + x27,9 + x27,8 - M1 <= 0
x2,10 + x3,10 + x7,10 + x8,10 + x9,10 + x14,10 + x15,10 + x16,10 + x21,10 + x22,10 + x23,10 + x28,10 + x29,10 + x30,10 - M2 <= 0
x0,10 + x0,9 + x1,10 + x1,9 + x4,10 + x4,9 + x5,10 + x5,9 + x6,10 + x6,9 + x11,10 + x11,9 + x12,10 + x12,9 + x13,10 + x13,9 + x18,10 + x18,9 + x19,10 + x19,9 + x20,10 + x20,9 + x25,10 + x25,9 + x26,10 + x26,9 + x27,10 + x27,9 - M1 <= 0
x2,11 + x3,11 + x7,11 + x8,11 + x14,11 + x15,11 + x21,11 + x22,11 + x28,11 + x29,11 - M2 <= 0
x0,11 + x0,10 + x1,11 + x1,10 + x4,11 + x4,10 + x5,11 + x5,10 + x6,11 + x6,10 + x11,11 + x11,10 + x12,11 + x12,10 + x13,11 + x13,10 + x18,11 + x18,10 + x19,11 + x19,10 + x20,11 + x20,10 + x25,11 + x25,10 + x26,11 + x26,10 + x27,11 + x27,10 - M1 <= 0
x2,12 + x7,12 + x14,12 + x21,12 + x28,12 - M2 <= 0
x0,12 + x0,11 + x1,12 + x1,11 + x4,12 + x4,11 + x5,12 + x5,11 + x6,12 + x6,11 + x11,12 + x11,11 + x12,12 + x12,11 + x13,12 + x13,11 + x18,12 + x18,11 + x19,12 + x19,11 + x20,12 + x20,11 + x25,12 + x25,11 + x26,12 + x26,11 + x27,12 + x27,11 - M1 <= 0
x0,13 + x0,12 + x1,13 + x1,12 + x4,13 + x4,12 + x5,13 + x5,12 + x6,13 + x6,12 + x11,13 + x11,12 + x12,13 + x12,12 + x13,13 + x13,12 + x18,13 + x18,12 + x19,13 + x19,12 + x20,13 + x20,12 + x25,13 + x25,12 + x26,13 + x26,12 + x27,13 + x27,12 - M1 <= 0
x0,14 + x0,13 + x1,14 + x1,13 + x4,14 + x4,13 + x5,14 + x5,13 + x6,14 + x6,13 + x11,14 + x11,13 + x12,14 + x12,13 + x13,14 + x13,13 + x18,14 + x18,13 + x19,14 + x19,13 + x20,14 + x20,13 + x25,14 + x25,13 + x26,14 + x26,13 + x27,14 + x27,13 - M1 <= 0
2 x2,2 + 3 x2,3 + 4 x2,4 + 5 x2,5 + 6 x2,6 + 7 x2,7 + 8 x2,8 + 9 x2,9 + 10 x2,10 + 11 x2,11 + 12 x2,12 - 3 x1,3 - 4 x1,4 - 5 x1,5 - 6 x1,6 - 7 x1,7 - 8 x1,8 - 9 x1,9 - 10 x1,10 - 11 x1,11 - 12 x1,12 - 13 x1,13 <= -1
1 x3,1 + 2 x3,2 + 3 x3,3 + 4 x3,4 + 5 x3,5 + 6 x3,6 + 7 x3,7 + 8 x3,8 + 9 x3,9 + 10 x3,10 + 11 x3,11 - 2 x0,2 - 3 x0,3 - 4 x0,4 - 5 x0,5 - 6 x0,6 - 7 x0,7 - 8 x0,8 - 9 x0,9 - 10 x0,10 - 11 x0,11 - 12 x0,12 - 13 x0,13 <= -1
1 x3,1 + 2 x3,2 + 3 x3,3 + 4 x3,4 + 5 x3,5 + 6 x3,6 + 7 x3,7 + 8 x3,8 + 9 x3,9 + 10 x3,10 + 11 x3,11 - 2 x2,2 - 3 x2,3 - 4 x2,4 - 5 x2,5 - 6 x2,6 - 7 x2,7 - 8 x2,8 - 9 x2,9 - 10 x2,10 - 11 x2,11 - 12 x2,12 <= -1
5 x7,5 + 6 x7,6 + 7 x7,7 + 8 x7,8 + 9 x7,9 + 10 x7,10 + 11 x7,11 + 12 x7,12 - 6 x6,6 - 7 x6,7 - 8 x6,8 - 9 x6,9 - 10 x6,10 - 11 x6,11 - 12 x6,12 - 13 x6,13 <= -1
4 x8,4 + 5 x8,5 + 6 x8,6 + 7 x8,7 + 8 x8,8 + 9 x8,9 + 10 x8,10 + 11 x8,11 - 5 x5,5 - 6 x5,6 - 7 x5,7 - 8 x5,8 - 9 x5,9 - 10 x5,10 - 11 x5,11 - 12 x5,12 - 13 x5,13 <= -1
4 x8,4 + 5 x8,5 + 6 x8,6 + 7 x8,7 + 8 x8,8 + 9 x8,9 + 10 x8,10 + 11 x8,11 - 5 x7,5 - 6 x7,6 - 7 x7,7 - 8 x7,8 - 9 x7,9 - 10 x7,10 - 11 x7,11 - 12 x7,12 <= -1
3 x9,3 + 4 x9,4 + 5 x9,5 + 6 x9,6 + 7 x9,7 + 8 x9,8 + 9 x9,9 + 10 x9,10 - 4 x4,4 - 5 x4,5 - 6 x4,6 - 7 x4,7 - 8 x4,8 - 9 x4,9 - 10 x4,10 - 11 x4,11 - 12 x4,12 - 13 x4,13 <= -1
3 x9,3 + 4 x9,4 + 5 x9,5 + 6 x9,6 + 7 x9,7 + 8 x9,8 + 9 x9,9 + 10 x9,10 - 4 x8,4 - 5 x8,5 - 6 x8,6 - 7 x8,7 - 8 x8,8 - 9 x8,9 - 10 x8,10 - 11 x8,11 <= -1
2 x10,2 + 3 x10,3 + 4 x10,4 + 5 x10,5 + 6 x10,6 + 7 x10,7 + 8 x10,8 + 9 x10,9 - 3 x9,3 - 4 x9,4 - 5 x9,5 - 6 x9,6 - 7 x9,7 - 8 x9,8 - 9 x9,9 - 10 x9,10 <= -1
4 x14,4 + 5 x14,5 + 6 x14,6 + 7 x14,7 + 8 x14,8 + 9 x14,9 + 10 x14,10 + 11 x14,11 + 12 x14,12 - 5 x13,5 - 6 x13,6 - 7 x13,7 - 8 x13,8 - 9 x13,9 - 10 x13,10 - 11 x13,11 - 12 x13,12 - 13 x13,13 <= -1
3 x15,3 + 4 x15,4 + 5 x15,5 + 6 x15,6 + 7 x15,7 + 8 x15,8 + 9 x15,9 + 10 x15,10 + 11 x15,11 - 4 x12,4 - 5 x12,5 - 6 x12,6 - 7 x12,7 - 8 x12,8 - 9 x12,9 - 10 x12,10 - 11 x12,11 - 12 x12,12 - 13 x12,13 <= -1
3 x15,3 + 4 x15,4 + 5 x15,5 + 6 x15,6 + 7 x15,7 + 8 x15,8 + 9 x15,9 + 10 x15,10 + 11 x15,11 - 4 x14,4 - 5 x14,5 - 6 x14,6 - 7 x14,7 - 8 x14,8 - 9 x14,9 - 10 x14,10 - 11 x14,11 - 12 x14,12 <= -1
2 x16,2 + 3 x16,3 + 4 x16,4 + 5 x16,5 + 6 x16,6 + 7 x16,7 + 8 x16,8 + 9 x16,9 + 10 x16,10 - 3 x11,3 - 4 x11,4 - 5 x11,5 - 6 x11,6 - 7 x11,7 - 8 x11,8 - 9 x11,9 - 10 x11,10 - 11 x11,11 - 12 x11,12 - 13 x11,13 <= -1
2 x16,2 + 3 x16,3 + 4 x16,4 + 5 x16,5 + 6 x16,6 + 7 x16,7 + 8 x16,8 + 9 x16,9 + 10 x16,10 - 3 x15,3 - 4 x15,4 - 5 x15,5 - 6 x15,6 - 7 x15,7 - 8 x15,8 - 9 x15,9 - 10 x15,10 - 11 x15,11 <= -1
1 x17,1 + 2 x17,2 + 3 x17,3 + 4 x17,4 + 5 x17,5 + 6 x17,6 + 7 x17,7 + 8 x17,8 - 2 x10,2 - 3 x10,3 - 4 x10,4 - 5 x10,5 - 6 x10,6 - 7 x10,7 - 8 x10,8 - 9 x10,9 <= -1
1 x17,1 + 2 x17,2 + 3 x17,3 + 4 x17,4 + 5 x17,5 + 6 x17,6 + 7 x17,7 + 8 x17,8 - 2 x16,2 - 3 x16,3 - 4 x16,4 - 5 x16,5 - 6 x16,6 - 7 x16,7 - 8 x16,8 - 9 x16,9 - 10 x16,10 <= -1
5 x21,5 + 6 x21,6 + 7 x21,7 + 8 x21,8 + 9 x21,9 + 10 x21,10 + 11 x21,11 + 12 x21,12 - 6 x20,6 - 7 x20,7 - 8 x20,8 - 9 x20,9 - 10 x20,10 - 11 x20,11 - 12 x20,12 - 13 x20,13 <= -1
4 x22,4 + 5 x22,5 + 6 x22,6 + 7 x22,7 + 8 x22,8 + 9 x22,9 + 10 x22,10 + 11 x22,11 - 5 x19,5 - 6 x19,6 - 7 x19,7 - 8 x19,8 - 9 x19,9 - 10 x19,10 - 11 x19,11 - 12 x19,12 - 13 x19,13 <= -1
4 x22,4 + 5 x22,5 + 6 x22,6 + 7 x22,7 + 8 x22,8 + 9 x22,9 + 10 x22,10 + 11 x22,11 - 5 x21,5 - 6 x21,6 - 7 x21,7 - 8 x21,8 - 9 x21,9 - 10 x21,10 - 11 x21,11 - 12 x21,12 <= -1
3 x23,3 + 4 x23,4 + 5 x23,5 + 6 x23,6 + 7 x23,7 + 8 x23,8 + 9 x23,9 + 10 x23,10 - 4 x18,4 - 5 x18,5 - 6 x18,6 - 7 x18,7 - 8 x18,8 - 9 x18,9 - 10 x18,10 - 11 x18,11 - 12 x18,12 - 13 x18,13 <= -1
3 x23,3 + 4 x23,4 + 5 x23,5 + 6 x23,6 + 7 x23,7 + 8 x23,8 + 9 x23,9 + 10 x23,10 - 4 x22,4 - 5 x22,5 - 6 x22,6 - 7 x22,7 - 8 x22,8 - 9 x22,9 - 10 x22,10 - 11 x22,11 <= -1
2 x24,2 + 3 x24,3 + 4 x24,4 + 5 x24,5 + 6 x24,6 + 7 x24,7 + 8 x24,8 + 9 x24,9 - 3 x23,3 - 4 x23,4 - 5 x23,5 - 6 x23,6 - 7 x23,7 - 8 x23,8 - 9 x23,9 - 10 x23,10 <= -1
4 x28,4 + 5 x28,5 + 6 x28,6 + 7 x28,7 + 8 x28,8 + 9 x28,9 + 10 x28,10 + 11 x28,11 + 12 x28,12 - 5 x27,5 - 6 x27,6 - 7 x27,7 - 8 x27,8 - 9 x27,9 - 10 x27,10 - 11 x27,11 - 12 x27,12 - 13 x27,13 <= -1
3 x29,3 + 4 x29,4 + 5 x29,5 + 6 x29,6 + 7 x29,7 + 8 x29,8 + 9 x29,9 + 10 x29,10 + 11 x29,11 - 4 x26,4 - 5 x26,5 - 6 x26,6 - 7 x26,7 - 8 x26,8 - 9 x26,9 - 10 x26,10 - 11 x26,11 - 12 x26,12 - 13 x26,13 <= -1
3 x29,3 + 4 x29,4 + 5 x29,5 + 6 x29,6 + 7 x29,7 + 8 x29,8 + 9 x29,9 + 10 x29,10 + 11 x29,11 - 4 x28,4 - 5 x28,5 - 6 x28,6 - 7 x28,7 - 8 x28,8 - 9 x28,9 - 10 x28,10 - 11 x28,11 - 12 x28,12 <= -1
2 x30,2 + 3 x30,3 + 4 x30,4 + 5 x30,5 + 6 x30,6 + 7 x30,7 + 8 x30,8 + 9 x30,9 + 10 x30,10 - 3 x25,3 - 4 x25,4 - 5 x25,5 - 6 x25,6 - 7 x25,7 - 8 x25,8 - 9 x25,9 - 10 x25,10 - 11 x25,11 - 12 x25,12 - 13 x25,13 <= -1
2 x30,2 + 3 x30,3 + 4 x30,4 + 5 x30,5 + 6 x30,6 + 7 x30,7 + 8 x30,8 + 9 x30,9 + 10 x30,10 - 3 x29,3 - 4 x29,4 - 5 x29,5 - 6 x29,6 - 7 x29,7 - 8 x29,8 - 9 x29,9 - 10 x29,10 - 11 x29,11 <= -1
1 x31,1 + 2 x31,2 + 3 x31,3 + 4 x31,4 + 5 x31,5 + 6 x31,6 + 7 x31,7 + 8 x31,8 - 2 x24,2 - 3 x24,3 - 4 x24,4 - 5 x24,5 - 6 x24,6 - 7 x24,7 - 8 x24,8 - 9 x24,9 <= -1
1 x31,1 + 2 x31,2 + 3 x31,3 + 4 x31,4 + 5 x31,5 + 6 x31,6 + 7 x31,7 + 8 x31,8 - 2 x30,2 - 3 x30,3 - 4 x30,4 - 5 x30,5 - 6 x30,6 - 7 x30,7 - 8 x30,8 - 9 x30,9 - 10 x30,10 <= -1
Bounds
0 <= x0,2 <= 1
0 <= x0,3 <= 1
0 <= x0,4 <= 1
0 <= x0,5 <= 1
0 <= x0,6 <= 1
0 <= x0,7 <= 1
0 <= x0,8 <= 1
0 <= x0,9 <= 1
0 <= x0,10 <= 1
0 <= x0,11 <= 1
0 <= x0,12 <= 1
0 <= x0,13 <= 1
0 <= x1,3 <= 1
0 <= x1,4 <= 1
0 <= x1,5 <= 1
0 <= x1,6 <= 1
0 <= x1,7 <= 1
0 <= x1,8 <= 1
0 <= x1,9 <= 1
0 <= x1,10 <= 1
0 <= x1,11 <= 1
0 <= x1,12 <= 1
0 <= x1,13 <= 1
0 <= x2,2 <= 1
0 <= x2,3 <= 1
0 <= x2,4 <= 1
0 <= x2,5 <= 1
0 <= x2,6 <= 1
0 <= x2,7 <= 1
0 <= x2,8 <= 1
0 <= x2,9 <= 1
0 <= x2,10 <= 1
0 <= x2,11 <= 1
0 <= x2,12 <= 1
0 <= x3,1 <= 1
0 <= x3,2 <= 1
0 <= x3,3 <= 1
0 <= x3,4 <= 1
0 <= x3,5 <= 1
0 <= x3,6 <= 1
0 <= x3,7 <= 1
0 <= x3,8 <= 1
0 <= x3,9 <= 1
0 <= x3,10 <= 1
0 <= x3,11 <= 1
0 <= x4,4 <= 1
0 <= x4,5 <= 1
0 <= x4,6 <= 1
0 <= x4,7 <= 1
0 <= x4,8 <= 1
0 <= x4,9 <= 1
0 <= x4,10 <= 1
0 <= x4,11 <= 1
0 <= x4,12 <= 1
0 <= x4,13 <= 1
0 <= x5,5 <= 1
0 <= x5,6 <= 1
0 <= x5,7 <= 1
0 <= x5,8 <= 1
0 <= x5,9 <= 1
0 <= x5,10 <= 1
0 <= x5,11 <= 1
0 <= x5,12 <= 1
0 <= x5,13 <= 1
0 <= x6,6 <= 1
0 <= x6,7 <= 1
0 <= x6,8 <= 1
0 <= x6,9 <= 1
0 <= x6,10 <= 1
0 <= x6,11 <= 1
0 <= x6,12 <= 1
0 <= x6,13 <= 1
0 <= x7,5 <= 1
0 <= x7,6 <= 1
0 <= x7,7 <= 1
0 <= x7,8 <= 1
0 <= x7,9 <= 1
0 <= x7,10 <= 1
0 <= x7,11 <= 1
0 <= x7,12 <= 1
0 <= x8,4 <= 1
0 <= x8,5 <= 1
0 <= x8,6 <= 1
0 <= x8,7 <= 1
0 <= x8,8 <= 1
0 <= x8,9 <= 1
0 <= x8,10 <= 1
0 <= x8,11 <= 1
0 <= x9,3 <= 1
0 <= x9,4 <= 1
0 <= x9,5 <= 1
0 <= x9,6 <= 1
0 <= x9,7 <= 1
0 <= x9,8 <= 1
0 <= x9,9 <= 1
0 <= x9,10 <= 1
0 <= x10,2 <= 1
0 <= x10,3 <= 1
0 <= x10,4 <= 1
0 <= x10,5 <= 1
0 <= x10,6 <= 1
0 <= x10,7 <= 1
0 <= x10,8 <= 1
0 <= x10,9 <= 1
0 <= x11,3 <= 1
0 <= x11,4 <= 1
0 <= x11,5 <= 1
0 <= x11,6 <= 1
0 <= x11,7 <= 1
0 <= x11,8 <= 1
0 <= x11,9 <= 1
0 <= x11,10 <= 1
0 <= x11,11 <= 1
0 <= x11,12 <= 1
0 <= x11,13 <= 1
0 <= x12,4 <= 1
0 <= x12,5 <= 1
0 <= x12,6 <= 1
0 <= x12,7 <= 1
0 <= x12,8 <= 1
0 <= x12,9 <= 1
0 <= x12,10 <= 1
0 <= x12,11 <= 1
0 <= x12,12 <= 1
0 <= x12,13 <= 1
0 <= x13,5 <= 1
0 <= x13,6 <= 1
0 <= x13,7 <= 1
0 <= x13,8 <= 1
0 <= x13,9 <= 1
0 <= x13,10 <= 1
0 <= x13,11 <= 1
0 <= x13,12 <= 1
0 <= x13,13 <= 1
0 <= x14,4 <= 1
0 <= x14,5 <= 1
0 <= x14,6 <= 1
0 <= x14,7 <= 1
0 <= x14,8 <= 1
0 <= x14,9 <= 1
0 <= x14,10 <= 1
0 <= x14,11 <= 1
0 <= x14,12 <= 1
0 <= x15,3 <= 1
0 <= x15,4 <= 1
0 <= x15,5 <= 1
0 <= x15,6 <= 1
0 <= x15,7 <= 1
0 <= x15,8 <= 1
0 <= x15,9 <= 1
0 <= x15,10 <= 1
0 <= x15,11 <= 1
0 <= x16,2 <= 1
0 <= x16,3 <= 1
0 <= x16,4 <= 1
0 <= x16,5 <= 1
0 <= x16,6 <= 1
0 <= x16,7 <= 1
0 <= x16,8 <= 1
0 <= x16,9 <= 1
0 <= x16,10 <= 1
0 <= x17,1 <= 1
0 <= x17,2 <= 1
0 <= x17,3 <= 1
0 <= x17,4 <= 1
0 <= x17,5 <= 1
0 <= x17,6 <= 1
0 <= x17,7 <= 1
0 <= x17,8 <= 1
0 <= x18,4 <= 1
0 <= x18,5 <= 1
0 <= x18,6 <= 1
0 <= x18,7 <= 1
0 <= x18,8 <= 1
0 <= x18,9 <= 1
0 <= x18,10 <= 1
0 <= x18,11 <= 1
0 <= x18,12 <= 1
0 <= x18,13 <= 1
0 <= x19,5 <= 1
0 <= x19,6 <= 1
0 <= x19,7 <= 1
0 <= x19,8 <= 1
0 <= x19,9 <= 1
0 <= x19,10 <= 1
0 <= x19,11 <= 1
0 <= x19,12 <= 1
0 <= x19,13 <= 1
0 <= x20,6 <= 1
0 <= x20,7 <= 1
0 <= x20,8 <= 1
0 <= x20,9 <= 1
0 <= x20,10 <= 1
0 <= x20,11 <= 1
0 <= x20,12 <= 1
0 <= x20,13 <= 1
0 <= x21,5 <= 1
0 <= x21,6 <= 1
0 <= x21,7 <= 1
0 <= x21,8 <= 1
0 <= x21,9 <= 1
0 <= x21,10 <= 1
0 <= x21,11 <= 1
0 <= x21,12 <= 1
0 <= x22,4 <= 1
0 <= x22,5 <= 1
0 <= x22,6 <= 1
0 <= x22,7 <= 1
0 <= x22,8 <= 1
0 <= x22,9 <= 1
0 <= x22,10 <= 1
0 <= x22,11 <= 1
0 <= x23,3 <= 1
0 <= x23,4 <= 1
0 <= x23,5 <= 1
0 <= x23,6 <= 1
0 <= x23,7 <= 1
0 <= x23,8 <= 1
0 <= x23,9 <= 1
0 <= x23,10 <= 1
0 <= x24,2 <= 1
0 <= x24,3 <= 1
0 <= x24,4 <= 1
0 <= x24,5 <= 1
0 <= x24,6 <= 1
0 <= x24,7 <= 1
0 <= x24,8 <= 1
0 <= x24,9 <= 1
0 <= x25,3 <= 1
0 <= x25,4 <= 1
0 <= x25,5 <= 1
0 <= x25,6 <= 1
0 <= x25,7 <= 1
0 <= x25,8 <= 1
0 <= x25,9 <= 1
0 <= x25,10 <= 1
0 <= x25,11 <= 1
0 <= x25,12 <= 1
0 <= x25,13 <= 1
0 <= x26,4 <= 1
0 <= x26,5 <= 1
0 <= x26,6 <= 1
0 <= x26,7 <= 1
0 <= x26,8 <= 1
0 <= x26,9 <= 1
0 <= x26,10 <= 1
0 <= x26,11 <= 1
0 <= x26,12 <= 1
0 <= x26,13 <= 1
0 <= x27,5 <= 1
0 <= x27,6 <= 1
0 <= x27,7 <= 1
0 <= x27,8 <= 1
0 <= x27,9 <= 1
0 <= x27,10 <= 1
0 <= x27,11 <= 1
0 <= x27,12 <= 1
0 <= x27,13 <= 1
0 <= x28,4 <= 1
0 <= x28,5 <= 1
0 <= x28,6 <= 1
0 <= x28,7 <= 1
0 <= x28,8 <= 1
0 <= x28,9 <= 1
0 <= x28,10 <= 1
0 <= x28,11 <= 1
0 <= x28,12 <= 1
0 <= x29,3 <= 1
0 <= x29,4 <= 1
0 <= x29,5 <= 1
0 <= x29,6 <= 1
0 <= x29,7 <= 1
0 <= x29,8 <= 1
0 <= x29,9 <= 1
0 <= x29,10 <= 1
0 <= x29,11 <= 1
0 <= x30,2 <= 1
0 <= x30,3 <= 1
0 <= x30,4 <= 1
0 <= x30,5 <= 1
0 <= x30,6 <= 1
0 <= x30,7 <= 1
0 <= x30,8 <= 1
0 <= x30,9 <= 1
0 <= x30,10 <= 1
0 <= x31,1 <= 1
0 <= x31,2 <= 1
0 <= x31,3 <= 1
0 <= x31,4 <= 1
0 <= x31,5 <= 1
0 <= x31,6 <= 1
0 <= x31,7 <= 1
0 <= x31,8 <= 1
M1 >= 1
M2 >= 1
Generals
x0,2
x0,3
x0,4
x0,5
x0,6
x0,7
x0,8
x0,9
x0,10
x0,11
x0,12
x0,13
x1,3
x1,4
x1,5
x1,6
x1,7
x1,8
x1,9
x1,10
x1,11
x1,12
x1,13
x2,2
x2,3
x2,4
x2,5
x2,6
x2,7
x2,8
x2,9
x2,10
x2,11
x2,12
x3,1
x3,2
x3,3
x3,4
x3,5
x3,6
x3,7
x3,8
x3,9
x3,10
x3,11
x4,4
x4,5
x4,6
x4,7
x4,8
x4,9
x4,10
x4,11
x4,12
x4,13
x5,5
x5,6
x5,7
x5,8
x5,9
x5,10
x5,11
x5,12
x5,13
x6,6
x6,7
x6,8
x6,9
x6,10
x6,11
x6,12
x6,13
x7,5
x7,6
x7,7
x7,8
x7,9
x7,10
x7,11
x7,12
x8,4
x8,5
x8,6
x8,7
x8,8
x8,9
x8,10
x8,11
x9,3
x9,4
x9,5
x9,6
x9,7
x9,8
x9,9
x9,10
x10,2
x10,3
x10,4
x10,5
x10,6
x10,7
x10,8
x10,9
x11,3
x11,4
x11,5
x11,6
x11,7
x11,8
x11,9
x11,10
x11,11
x11,12
x11,13
x12,4
x12,5
x12,6
x12,7
x12,8
x12,9
x12,10
x12,11
x12,12
x12,13
x13,5
x13,6
x13,7
x13,8
x13,9
x13,10
x13,11
x13,12
x13,13
x14,4
x14,5
x14,6
x14,7
x14,8
x14,9
x14,10
x14,11
x14,12
x15,3
x15,4
x15,5
x15,6
x15,7
x15,8
x15,9
x15,10
x15,11
x16,2
x16,3
x16,4
x16,5
x16,6
x16,7
x16,8
x16,9
x16,10
x17,1
x17,2
x17,3
x17,4
x17,5
x17,6
x17,7
x17,8
x18,4
x18,5
x18,6
x18,7
x18,8
x18,9
x18,10
x18,11
x18,12
x18,13
x19,5
x19,6
x19,7
x19,8
x19,9
x19,10
x19,11
x19,12
x19,13
x20,6
x20,7
x20,8
x20,9
x20,10
x20,11
x20,12
x20,13
x21,5
x21,6
x21,7
x21,8
x21,9
x21,10
x21,11
x21,12
x22,4
x22,5
x22,6
x22,7
x22,8
x22,9
x22,10
x22,11
x23,3
x23,4
x23,5
x23,6
x23,7
x23,8
x23,9
x23,10
x24,2
x24,3
x24,4
x24,5
x24,6
x24,7
x24,8
x24,9
x25,3
x25,4
x25,5
x25,6
x25,7
x25,8
x25,9
x25,10
x25,11
x25,12
x25,13
x26,4
x26,5
x26,6
x26,7
x26,8
x26,9
x26,10
x26,11
x26,12
x26,13
x27,5
x27,6
x27,7
x27,8
x27,9
x27,10
x27,11
x27,12
x27,13
x28,4
x28,5
x28,6
x28,7
x28,8
x28,9
x28,10
x28,11
x28,12
x29,3
x29,4
x29,5
x29,6
x29,7
x29,8
x29,9
x29,10
x29,11
x30,2
x30,3
x30,4
x30,5
x30,6
x30,7
x30,8
x30,9
x30,10
x31,1
x31,2
x31,3
x31,4
x31,5
x31,6
x31,7
x31,8
M1
M2
End
