TC_ILP/motion_vectors_dfg__7_2.0.sol
<?xml version = "1.0" encoding="UTF-8" standalone="yes"?>
<CPLEXSolution version="1.2">
 <header
   problemName="motion_vectors_dfg__7_2.0.lp"
   solutionName="incumbent"
   solutionIndex="-1"
   objectiveValue="5"
   solutionTypeValue="3"
   solutionTypeString="primal"
   solutionStatusValue="101"
   solutionStatusString="integer optimal solution"
   solutionMethodString="mip"
   primalFeasible="1"
   dualFeasible="1"
   MIPNodes="0"
   MIPIterations="251"
   writeLevel="1"/>
 <quality
   epInt="1.0000000000000001e-05"
   epRHS="9.9999999999999995e-07"
   maxIntInfeas="0"
   maxPrimalInfeas="0"
   maxX="3"
   maxSlack="7"/>
 <linearConstraints>
  <constraint name="c1" index="0" slack="0"/>
  <constraint name="c2" index="1" slack="0"/>
  <constraint name="c3" index="2" slack="0"/>
  <constraint name="c4" index="3" slack="0"/>
  <constraint name="c5" index="4" slack="0"/>
  <constraint name="c6" index="5" slack="0"/>
  <constraint name="c7" index="6" slack="0"/>
  <constraint name="c8" index="7" slack="0"/>
  <constraint name="c9" index="8" slack="0"/>
  <constraint name="c10" index="9" slack="0"/>
  <constraint name="c11" index="10" slack="0"/>
  <constraint name="c12" index="11" slack="0"/>
  <constraint name="c13" index="12" slack="0"/>
  <constraint name="c14" index="13" slack="0"/>
  <constraint name="c15" index="14" slack="0"/>
  <constraint name="c16" index="15" slack="0"/>
  <constraint name="c17" index="16" slack="0"/>
  <constraint name="c18" index="17" slack="0"/>
  <constraint name="c19" index="18" slack="0"/>
  <constraint name="c20" index="19" slack="0"/>
  <constraint name="c21" index="20" slack="0"/>
  <constraint name="c22" index="21" slack="0"/>
  <constraint name="c23" index="22" slack="0"/>
  <constraint name="c24" index="23" slack="0"/>
  <constraint name="c25" index="24" slack="0"/>
  <constraint name="c26" index="25" slack="0"/>
  <constraint name="c27" index="26" slack="0"/>
  <constraint name="c28" index="27" slack="0"/>
  <constraint name="c29" index="28" slack="0"/>
  <constraint name="c30" index="29" slack="0"/>
  <constraint name="c31" index="30" slack="0"/>
  <constraint name="c32" index="31" slack="0"/>
  <constraint name="c33" index="32" slack="0"/>
  <constraint name="c34" index="33" slack="0"/>
  <constraint name="c35" index="34" slack="0"/>
  <constraint name="c36" index="35" slack="2"/>
  <constraint name="c37" index="36" slack="0"/>
  <constraint name="c38" index="37" slack="2"/>
  <constraint name="c39" index="38" slack="0"/>
  <constraint name="c40" index="39" slack="2"/>
  <constraint name="c41" index="40" slack="1"/>
  <constraint name="c42" index="41" slack="1"/>
  <constraint name="c43" index="42" slack="1"/>
  <constraint name="c44" index="43" slack="0"/>
  <constraint name="c45" index="44" slack="1"/>
  <constraint name="c46" index="45" slack="1"/>
  <constraint name="c47" index="46" slack="1"/>
  <constraint name="c48" index="47" slack="0"/>
  <constraint name="c49" index="48" slack="1"/>
  <constraint name="c50" index="49" slack="0"/>
  <constraint name="c51" index="50" slack="0"/>
  <constraint name="c52" index="51" slack="0"/>
  <constraint name="c53" index="52" slack="1"/>
  <constraint name="c54" index="53" slack="0"/>
  <constraint name="c55" index="54" slack="0"/>
  <constraint name="c56" index="55" slack="0"/>
  <constraint name="c57" index="56" slack="1"/>
  <constraint name="c58" index="57" slack="2"/>
  <constraint name="c59" index="58" slack="0"/>
  <constraint name="c60" index="59" slack="0"/>
  <constraint name="c61" index="60" slack="1"/>
  <constraint name="c62" index="61" slack="0"/>
  <constraint name="c63" index="62" slack="5"/>
  <constraint name="c64" index="63" slack="7"/>
  <constraint name="c65" index="64" slack="0"/>
  <constraint name="c66" index="65" slack="1"/>
  <constraint name="c67" index="66" slack="0"/>
  <constraint name="c68" index="67" slack="0"/>
  <constraint name="c69" index="68" slack="0"/>
  <constraint name="c70" index="69" slack="2"/>
  <constraint name="c71" index="70" slack="0"/>
  <constraint name="c72" index="71" slack="3"/>
  <constraint name="c73" index="72" slack="1"/>
  <constraint name="c74" index="73" slack="0"/>
  <constraint name="c75" index="74" slack="0"/>
  <constraint name="c76" index="75" slack="3"/>
  <constraint name="c77" index="76" slack="2"/>
  <constraint name="c78" index="77" slack="0"/>
  <constraint name="c79" index="78" slack="0"/>
  <constraint name="c80" index="79" slack="5"/>
  <constraint name="c81" index="80" slack="0"/>
  <constraint name="c82" index="81" slack="0"/>
  <constraint name="c83" index="82" slack="0"/>
  <constraint name="c84" index="83" slack="4"/>
  <constraint name="c85" index="84" slack="0"/>
 </linearConstraints>
 <variables>
  <variable name="M1" index="0" value="3"/>
  <variable name="M2" index="1" value="2"/>
  <variable name="x0,2" index="2" value="0"/>
  <variable name="x0,3" index="3" value="0"/>
  <variable name="x0,4" index="4" value="0"/>
  <variable name="x0,5" index="5" value="0"/>
  <variable name="x0,6" index="6" value="0"/>
  <variable name="x0,7" index="7" value="1"/>
  <variable name="x0,8" index="8" value="0"/>
  <variable name="x0,9" index="9" value="0"/>
  <variable name="x0,10" index="10" value="0"/>
  <variable name="x0,11" index="11" value="0"/>
  <variable name="x0,12" index="12" value="0"/>
  <variable name="x0,13" index="13" value="0"/>
  <variable name="x1,3" index="14" value="0"/>
  <variable name="x1,4" index="15" value="0"/>
  <variable name="x1,5" index="16" value="0"/>
  <variable name="x1,6" index="17" value="0"/>
  <variable name="x1,7" index="18" value="1"/>
  <variable name="x1,8" index="19" value="0"/>
  <variable name="x1,9" index="20" value="0"/>
  <variable name="x1,10" index="21" value="0"/>
  <variable name="x1,11" index="22" value="0"/>
  <variable name="x1,12" index="23" value="0"/>
  <variable name="x1,13" index="24" value="0"/>
  <variable name="x2,2" index="25" value="0"/>
  <variable name="x2,3" index="26" value="0"/>
  <variable name="x2,4" index="27" value="0"/>
  <variable name="x2,5" index="28" value="1"/>
  <variable name="x2,6" index="29" value="0"/>
  <variable name="x2,7" index="30" value="0"/>
  <variable name="x2,8" index="31" value="0"/>
  <variable name="x2,9" index="32" value="0"/>
  <variable name="x2,10" index="33" value="0"/>
  <variable name="x2,11" index="34" value="0"/>
  <variable name="x2,12" index="35" value="0"/>
  <variable name="x3,1" index="36" value="0"/>
  <variable name="x3,2" index="37" value="0"/>
  <variable name="x3,3" index="38" value="0"/>
  <variable name="x3,4" index="39" value="1"/>
  <variable name="x3,5" index="40" value="0"/>
  <variable name="x3,6" index="41" value="0"/>
  <variable name="x3,7" index="42" value="0"/>
  <variable name="x3,8" index="43" value="0"/>
  <variable name="x3,9" index="44" value="0"/>
  <variable name="x3,10" index="45" value="0"/>
  <variable name="x3,11" index="46" value="0"/>
  <variable name="x4,4" index="47" value="0"/>
  <variable name="x4,5" index="48" value="0"/>
  <variable name="x4,6" index="49" value="0"/>
  <variable name="x4,7" index="50" value="0"/>
  <variable name="x4,8" index="51" value="0"/>
  <variable name="x4,9" index="52" value="1"/>
  <variable name="x4,10" index="53" value="0"/>
  <variable name="x4,11" index="54" value="0"/>
  <variable name="x4,12" index="55" value="0"/>
  <variable name="x4,13" index="56" value="0"/>
  <variable name="x5,5" index="57" value="0"/>
  <variable name="x5,6" index="58" value="0"/>
  <variable name="x5,7" index="59" value="0"/>
  <variable name="x5,8" index="60" value="0"/>
  <variable name="x5,9" index="61" value="0"/>
  <variable name="x5,10" index="62" value="0"/>
  <variable name="x5,11" index="63" value="0"/>
  <variable name="x5,12" index="64" value="0"/>
  <variable name="x5,13" index="65" value="1"/>
  <variable name="x6,6" index="66" value="0"/>
  <variable name="x6,7" index="67" value="0"/>
  <variable name="x6,8" index="68" value="0"/>
  <variable name="x6,9" index="69" value="0"/>
  <variable name="x6,10" index="70" value="0"/>
  <variable name="x6,11" index="71" value="0"/>
  <variable name="x6,12" index="72" value="0"/>
  <variable name="x6,13" index="73" value="1"/>
  <variable name="x7,5" index="74" value="0"/>
  <variable name="x7,6" index="75" value="0"/>
  <variable name="x7,7" index="76" value="0"/>
  <variable name="x7,8" index="77" value="0"/>
  <variable name="x7,9" index="78" value="0"/>
  <variable name="x7,10" index="79" value="0"/>
  <variable name="x7,11" index="80" value="0"/>
  <variable name="x7,12" index="81" value="1"/>
  <variable name="x8,4" index="82" value="0"/>
  <variable name="x8,5" index="83" value="0"/>
  <variable name="x8,6" index="84" value="0"/>
  <variable name="x8,7" index="85" value="0"/>
  <variable name="x8,8" index="86" value="0"/>
  <variable name="x8,9" index="87" value="0"/>
  <variable name="x8,10" index="88" value="0"/>
  <variable name="x8,11" index="89" value="1"/>
  <variable name="x9,3" index="90" value="1"/>
  <variable name="x9,4" index="91" value="0"/>
  <variable name="x9,5" index="92" value="0"/>
  <variable name="x9,6" index="93" value="0"/>
  <variable name="x9,7" index="94" value="0"/>
  <variable name="x9,8" index="95" value="0"/>
  <variable name="x9,9" index="96" value="0"/>
  <variable name="x9,10" index="97" value="0"/>
  <variable name="x10,2" index="98" value="1"/>
  <variable name="x10,3" index="99" value="0"/>
  <variable name="x10,4" index="100" value="0"/>
  <variable name="x10,5" index="101" value="0"/>
  <variable name="x10,6" index="102" value="0"/>
  <variable name="x10,7" index="103" value="0"/>
  <variable name="x10,8" index="104" value="0"/>
  <variable name="x10,9" index="105" value="0"/>
  <variable name="x11,3" index="106" value="0"/>
  <variable name="x11,4" index="107" value="0"/>
  <variable name="x11,5" index="108" value="0"/>
  <variable name="x11,6" index="109" value="1"/>
  <variable name="x11,7" index="110" value="0"/>
  <variable name="x11,8" index="111" value="0"/>
  <variable name="x11,9" index="112" value="0"/>
  <variable name="x11,10" index="113" value="0"/>
  <variable name="x11,11" index="114" value="0"/>
  <variable name="x11,12" index="115" value="0"/>
  <variable name="x11,13" index="116" value="0"/>
  <variable name="x12,4" index="117" value="0"/>
  <variable name="x12,5" index="118" value="0"/>
  <variable name="x12,6" index="119" value="0"/>
  <variable name="x12,7" index="120" value="0"/>
  <variable name="x12,8" index="121" value="0"/>
  <variable name="x12,9" index="122" value="1"/>
  <variable name="x12,10" index="123" value="0"/>
  <variable name="x12,11" index="124" value="0"/>
  <variable name="x12,12" index="125" value="0"/>
  <variable name="x12,13" index="126" value="0"/>
  <variable name="x13,5" index="127" value="0"/>
  <variable name="x13,6" index="128" value="0"/>
  <variable name="x13,7" index="129" value="0"/>
  <variable name="x13,8" index="130" value="0"/>
  <variable name="x13,9" index="131" value="0"/>
  <variable name="x13,10" index="132" value="0"/>
  <variable name="x13,11" index="133" value="1"/>
  <variable name="x13,12" index="134" value="0"/>
  <variable name="x13,13" index="135" value="0"/>
  <variable name="x14,4" index="136" value="0"/>
  <variable name="x14,5" index="137" value="0"/>
  <variable name="x14,6" index="138" value="0"/>
  <variable name="x14,7" index="139" value="0"/>
  <variable name="x14,8" index="140" value="0"/>
  <variable name="x14,9" index="141" value="1"/>
  <variable name="x14,10" index="142" value="0"/>
  <variable name="x14,11" index="143" value="0"/>
  <variable name="x14,12" index="144" value="0"/>
  <variable name="x15,3" index="145" value="0"/>
  <variable name="x15,4" index="146" value="0"/>
  <variable name="x15,5" index="147" value="0"/>
  <variable name="x15,6" index="148" value="0"/>
  <variable name="x15,7" index="149" value="0"/>
  <variable name="x15,8" index="150" value="1"/>
  <variable name="x15,9" index="151" value="0"/>
  <variable name="x15,10" index="152" value="0"/>
  <variable name="x15,11" index="153" value="0"/>
  <variable name="x16,2" index="154" value="0"/>
  <variable name="x16,3" index="155" value="0"/>
  <variable name="x16,4" index="156" value="0"/>
  <variable name="x16,5" index="157" value="1"/>
  <variable name="x16,6" index="158" value="0"/>
  <variable name="x16,7" index="159" value="0"/>
  <variable name="x16,8" index="160" value="0"/>
  <variable name="x16,9" index="161" value="0"/>
  <variable name="x16,10" index="162" value="0"/>
  <variable name="x17,1" index="163" value="1"/>
  <variable name="x17,2" index="164" value="0"/>
  <variable name="x17,3" index="165" value="0"/>
  <variable name="x17,4" index="166" value="0"/>
  <variable name="x17,5" index="167" value="0"/>
  <variable name="x17,6" index="168" value="0"/>
  <variable name="x17,7" index="169" value="0"/>
  <variable name="x17,8" index="170" value="0"/>
  <variable name="x18,4" index="171" value="0"/>
  <variable name="x18,5" index="172" value="0"/>
  <variable name="x18,6" index="173" value="0"/>
  <variable name="x18,7" index="174" value="0"/>
  <variable name="x18,8" index="175" value="0"/>
  <variable name="x18,9" index="176" value="0"/>
  <variable name="x18,10" index="177" value="0"/>
  <variable name="x18,11" index="178" value="1"/>
  <variable name="x18,12" index="179" value="0"/>
  <variable name="x18,13" index="180" value="0"/>
  <variable name="x19,5" index="181" value="0"/>
  <variable name="x19,6" index="182" value="0"/>
  <variable name="x19,7" index="183" value="0"/>
  <variable name="x19,8" index="184" value="0"/>
  <variable name="x19,9" index="185" value="0"/>
  <variable name="x19,10" index="186" value="0"/>
  <variable name="x19,11" index="187" value="1"/>
  <variable name="x19,12" index="188" value="0"/>
  <variable name="x19,13" index="189" value="0"/>
  <variable name="x20,6" index="190" value="0"/>
  <variable name="x20,7" index="191" value="0"/>
  <variable name="x20,8" index="192" value="0"/>
  <variable name="x20,9" index="193" value="0"/>
  <variable name="x20,10" index="194" value="0"/>
  <variable name="x20,11" index="195" value="0"/>
  <variable name="x20,12" index="196" value="0"/>
  <variable name="x20,13" index="197" value="1"/>
  <variable name="x21,5" index="198" value="0"/>
  <variable name="x21,6" index="199" value="0"/>
  <variable name="x21,7" index="200" value="0"/>
  <variable name="x21,8" index="201" value="0"/>
  <variable name="x21,9" index="202" value="0"/>
  <variable name="x21,10" index="203" value="0"/>
  <variable name="x21,11" index="204" value="1"/>
  <variable name="x21,12" index="205" value="0"/>
  <variable name="x22,4" index="206" value="0"/>
  <variable name="x22,5" index="207" value="0"/>
  <variable name="x22,6" index="208" value="0"/>
  <variable name="x22,7" index="209" value="0"/>
  <variable name="x22,8" index="210" value="0"/>
  <variable name="x22,9" index="211" value="0"/>
  <variable name="x22,10" index="212" value="1"/>
  <variable name="x22,11" index="213" value="0"/>
  <variable name="x23,3" index="214" value="0"/>
  <variable name="x23,4" index="215" value="0"/>
  <variable name="x23,5" index="216" value="0"/>
  <variable name="x23,6" index="217" value="0"/>
  <variable name="x23,7" index="218" value="1"/>
  <variable name="x23,8" index="219" value="0"/>
  <variable name="x23,9" index="220" value="0"/>
  <variable name="x23,10" index="221" value="0"/>
  <variable name="x24,2" index="222" value="0"/>
  <variable name="x24,3" index="223" value="0"/>
  <variable name="x24,4" index="224" value="0"/>
  <variable name="x24,5" index="225" value="0"/>
  <variable name="x24,6" index="226" value="1"/>
  <variable name="x24,7" index="227" value="0"/>
  <variable name="x24,8" index="228" value="0"/>
  <variable name="x24,9" index="229" value="0"/>
  <variable name="x25,3" index="230" value="1"/>
  <variable name="x25,4" index="231" value="0"/>
  <variable name="x25,5" index="232" value="0"/>
  <variable name="x25,6" index="233" value="0"/>
  <variable name="x25,7" index="234" value="0"/>
  <variable name="x25,8" index="235" value="0"/>
  <variable name="x25,9" index="236" value="0"/>
  <variable name="x25,10" index="237" value="0"/>
  <variable name="x25,11" index="238" value="0"/>
  <variable name="x25,12" index="239" value="0"/>
  <variable name="x25,13" index="240" value="0"/>
  <variable name="x26,4" index="241" value="0"/>
  <variable name="x26,5" index="242" value="0"/>
  <variable name="x26,6" index="243" value="0"/>
  <variable name="x26,7" index="244" value="0"/>
  <variable name="x26,8" index="245" value="0"/>
  <variable name="x26,9" index="246" value="1"/>
  <variable name="x26,10" index="247" value="0"/>
  <variable name="x26,11" index="248" value="0"/>
  <variable name="x26,12" index="249" value="0"/>
  <variable name="x26,13" index="250" value="0"/>
  <variable name="x27,5" index="251" value="1"/>
  <variable name="x27,6" index="252" value="0"/>
  <variable name="x27,7" index="253" value="0"/>
  <variable name="x27,8" index="254" value="0"/>
  <variable name="x27,9" index="255" value="0"/>
  <variable name="x27,10" index="256" value="0"/>
  <variable name="x27,11" index="257" value="0"/>
  <variable name="x27,12" index="258" value="0"/>
  <variable name="x27,13" index="259" value="0"/>
  <variable name="x28,4" index="260" value="1"/>
  <variable name="x28,5" index="261" value="0"/>
  <variable name="x28,6" index="262" value="0"/>
  <variable name="x28,7" index="263" value="0"/>
  <variable name="x28,8" index="264" value="0"/>
  <variable name="x28,9" index="265" value="0"/>
  <variable name="x28,10" index="266" value="0"/>
  <variable name="x28,11" index="267" value="0"/>
  <variable name="x28,12" index="268" value="0"/>
  <variable name="x29,3" index="269" value="1"/>
  <variable name="x29,4" index="270" value="0"/>
  <variable name="x29,5" index="271" value="0"/>
  <variable name="x29,6" index="272" value="0"/>
  <variable name="x29,7" index="273" value="0"/>
  <variable name="x29,8" index="274" value="0"/>
  <variable name="x29,9" index="275" value="0"/>
  <variable name="x29,10" index="276" value="0"/>
  <variable name="x29,11" index="277" value="0"/>
  <variable name="x30,2" index="278" value="1"/>
  <variable name="x30,3" index="279" value="0"/>
  <variable name="x30,4" index="280" value="0"/>
  <variable name="x30,5" index="281" value="0"/>
  <variable name="x30,6" index="282" value="0"/>
  <variable name="x30,7" index="283" value="0"/>
  <variable name="x30,8" index="284" value="0"/>
  <variable name="x30,9" index="285" value="0"/>
  <variable name="x30,10" index="286" value="0"/>
  <variable name="x31,1" index="287" value="1"/>
  <variable name="x31,2" index="288" value="0"/>
  <variable name="x31,3" index="289" value="0"/>
  <variable name="x31,4" index="290" value="0"/>
  <variable name="x31,5" index="291" value="0"/>
  <variable name="x31,6" index="292" value="0"/>
  <variable name="x31,7" index="293" value="0"/>
  <variable name="x31,8" index="294" value="0"/>
  <variable name="x1,2" index="295" value="0"/>
  <variable name="x11,2" index="296" value="0"/>
  <variable name="x25,2" index="297" value="0"/>
  <variable name="x4,3" index="298" value="0"/>
  <variable name="x12,3" index="299" value="0"/>
  <variable name="x18,3" index="300" value="0"/>
  <variable name="x26,3" index="301" value="0"/>
  <variable name="x5,4" index="302" value="0"/>
  <variable name="x13,4" index="303" value="0"/>
  <variable name="x19,4" index="304" value="0"/>
  <variable name="x27,4" index="305" value="0"/>
  <variable name="x6,5" index="306" value="0"/>
  <variable name="x20,5" index="307" value="0"/>
  <variable name="x0,14" index="308" value="0"/>
  <variable name="x1,14" index="309" value="0"/>
  <variable name="x4,14" index="310" value="0"/>
  <variable name="x5,14" index="311" value="0"/>
  <variable name="x6,14" index="312" value="0"/>
  <variable name="x11,14" index="313" value="0"/>
  <variable name="x12,14" index="314" value="0"/>
  <variable name="x13,14" index="315" value="0"/>
  <variable name="x18,14" index="316" value="0"/>
  <variable name="x19,14" index="317" value="0"/>
  <variable name="x20,14" index="318" value="0"/>
  <variable name="x25,14" index="319" value="0"/>
  <variable name="x26,14" index="320" value="0"/>
  <variable name="x27,14" index="321" value="0"/>
 </variables>
</CPLEXSolution>
